NAME : 2OPTtest
COMMENT : Bonn VLSI data set with 131 points
COMMENT : Uni Bonn, Research Institute for Discrete Math
COMMENT : Contributed by Andre Rohe
TYPE : TSP
DIMENSION : 30
EDGE_WEIGHT_TYPE : EUC_2D
NODE_COORD_SECTION
1 0 3
2 0 7
3 2 1
4 2 8
5 4 5
6 4 6
7 5 1
8 6 4
9 8 0
10 8 6
EOF
